100 8
302 769
682 879
178 741
692 407
299 156
393 217
770 801
457 66
613 478
673 664
639 532
672 271
200 360
645 517
278 726
85 508
441 419
766 600
216 663
220 826
446 473
494 400
653 495
537 675
199 517
222 847
319 435
842 895
155 469
307 731
595 583
751 537
729 841
652 527
835 414
729 542
665 642
974 855
212 373
106 617
862 377
620 487
745 792
152 32
736 374
532 530
259 791
498 476
672 762
306 530
791 357
464 449
231 373
819 871
672 414
318 115
270 10
277 152
630 805
177 758
226 757
489 637
94 597
920 829
597 792
203 533
318 34
377 417
590 505
697 811
307 817
712 248
218 487
934 837
765 307
160 139
299 451
569 520
260 369
108 554
290 676
580 720
351 462
481 474
720 723
89 382
557 777
317 861
536 742
676 708
787 574
124 522
336 401
525 833
188 90
445 209
745 684
137 781
716 316
289 852
